1 37 52
2 49 40
3 52 61
4 20 22
5 40 33
6 24 47
7 7 63
8 13 62
9 54 33
10 55 21
11 46 21
12 31 33
13 5 25
14 12 21
15 36 71
16 52 61
17 27 51
18 17 41
19 13 41
20 57 51
21 62 42
22 42 57
23 16 57
24 8 52
25 7 38
26 27 68
27 30 48
28 43 67
29 58 48
30 58 27
31 37 69
32 38 46
33 46 10
34 61 33
35 62 63
36 63 69
37 32 22
38 45 35
39 59 15
40 5 6
41 10 12
42 2 11
43 51 64
44 13 15
45 9 10
46 3 39
47 51 32
48 24 55
49 46 28
50 23 37
51 33 40